\\ Problema de Localizacao de Instalacoes

\\ Dantzig-Wolfe
\\ Problema Mestre

\\ a1 = [ x11=1, x21=1, x31=1, y1=1 , 0...]
\\ a2 = [ x11=4, x12=7, y1=1, y2=2, 0...]

min
52a1 + 147a2

st
u1:  3a1 + 11a2 = 3
u2:   a1        = 1
u3:  5a1        = 5

u0:  a1 + a2 = 1


end
